NAME: RGB
TYPE: TSP
COMMENT: 3d RGB data
DIMENSION: 8
EDGE_WEIGHT_TYPE: GEO
EDGE_WEIGHT_FORMAT: FUNCTION 
DISPLAY_DATA_TYPE: COORD_DISPLAY
NODE_COORD_SECTION
   1  0.0         0.0        0.0
   2  255.0       0.0        0.0
   3  0.0         255.0      0.0
   4  0.0         0.0        255.0
   5  0.0         128.0      128.0
   6  128.0       0.0        128.0
   7  128.0       128.0      0.0
   8  0.0         255.0      255.0
   9  255.0       0.0        255.0
  10  255.0       255.0      0.0
  11  255.0       128.0      128.0
  12  128.0       255.0      128.0
  13  128.0       128.0      255.0
  14  255.0       255.0      255.0
  15  0.0         0.0        222.0
  16  0.0         0.0        154.0
  17  0.0         0.0        204.0
  18  0.0         0.0        199.0
  18  0.0         0.0        254.0
  18  0.0         0.0        243.0
  18  0.0         0.0        232.0
  18  0.0         0.0        221.0
  18  0.0         0.0        210.0
EOF



